71
150
105	4
104	3
103	2
102	3
101	3
100	6
99	2
98	1
97	3
96	3
95	4
94	1
93	2
92	3
91	6
90	2
89	7
88	4
87	1
86	4
85	5
84	1
83	4
82	4
81	1
80	2
79	2
78	1
77	2
76	4
75	2
73	3
71	3
69	2
68	3
67	2
66	3
65	1
64	5
63	1
61	3
60	3
59	4
58	1
57	3
56	3
55	4
54	3
53	1
52	8
51	4
50	2
49	2
48	4
47	2
46	1
45	2
44	2
43	1
41	3
40	2
39	3
38	6
37	3
36	5
35	1
34	1
33	1
32	2
31	3
30	2
